#pLT is two-dimensional [i,r]=[component, individual]
#[i,*] means all data in row i.

param pLT := 
[1,*]
1  0    2  7    3  8    4  7    5  7    6  4    

[2,*]
1  3    2  5    3  5    4  5    5  3    6  4    
;